DIMACS2
20 54 267 57 108 121 117 241 217 317 301 144 237 30 226 277 154 291 236 247 133
p edge 320 1377
e 0 265 1.0
e 0 239 1.0
e 0 313 1.0
e 0 212 1.0
e 1 310 1.0
e 1 304 1.0
e 1 284 1.0
e 1 8 1.0
e 2 246 1.0
e 2 213 1.0
e 2 205 1.0
e 2 18 1.0
e 3 162 1.0
e 3 132 1.0
e 3 30 21.0
e 3 290 2.0
e 4 122 1.0
e 4 55 2.0
e 4 240 2.0
e 4 34 1.0
e 5 225 1.0
e 5 112 1.0
e 5 218 1.0
e 5 208 1.0
e 6 150 1.0
e 6 124 1.0
e 6 302 1.0
e 6 222 1.0
e 7 176 1.0
e 7 78 1.0
e 7 103 1.0
e 7 280 2.0
e 8 110 1.0
e 8 112 2.0
e 8 178 1.0
e 8 163 1.0
e 9 47 4.0
e 9 185 1.0
e 9 181 6.0
e 10 150 1.0
e 10 203 1.0
e 10 102 1.0
e 10 280 2.0
e 11 70 1.0
e 11 159 1.0
e 11 99 1.0
e 11 279 1.0
e 12 277 40.0
e 12 82 1.0
e 12 138 2.0
e 12 215 1.0
e 13 165 1.0
e 13 114 1.0
e 13 198 1.0
e 13 37 1.0
e 14 291 37.0
e 14 103 2.0
e 14 197 1.0
e 14 293 2.0
e 15 35 1.0
e 15 245 1.0
e 15 169 1.0
e 15 174 1.0
e 16 25 1.0
e 16 268 1.0
e 16 272 1.0
e 16 219 2.0
e 17 120 1.0
e 17 32 1.0
e 17 278 2.0
e 17 281 2.0
e 18 257 2.0
e 18 27 1.0
e 18 164 1.0
e 18 240 2.0
e 19 135 2.0
e 19 60 2.0
e 19 157 2.0
e 19 189 1.0
e 20 260 1.0
e 20 167 1.0
e 20 72 1.0
e 20 25 1.0
e 21 110 1.0
e 21 310 1.0
e 21 74 2.0
e 21 267 29.0
e 22 70 1.0
e 22 57 23.0
e 22 225 1.0
e 22 43 1.0
e 23 230 2.0
e 23 249 1.0
e 23 67 2.0
e 23 291 7.0
e 24 158 1.0
e 24 34 1.0
e 24 280 1.0
e 24 268 1.0
e 25 1 2.0
e 25 129 1.0
e 25 305 2.0
e 25 144 2.0
e 26 113 1.0
e 26 285 1.0
e 26 242 2.0
e 26 303 1.0
e 27 309 2.0
e 27 298 1.0
e 27 195 1.0
e 27 228 1.0
e 28 12 1.0
e 28 134 2.0
e 28 84 1.0
e 28 159 2.0
e 29 247 9.0
e 29 286 1.0
e 29 288 1.0
e 29 67 1.0
e 30 290 14.0
e 30 187 43.0
e 30 174 39.0
e 30 11 27.0
e 30 108 35.0
e 30 9 47.0
e 30 117 36.0
e 30 277 20.0
e 30 236 27.0
e 30 23 16.0
e 30 217 39.0
e 30 226 46.0
e 30 241 35.0
e 30 237 38.0
e 31 266 1.0
e 31 194 1.0
e 31 228 2.0
e 31 96 1.0
e 32 210 1.0
e 32 209 1.0
e 32 145 2.0
e 32 38 1.0
e 33 28 1.0
e 33 248 2.0
e 33 278 1.0
e 33 82 1.0
e 34 87 1.0
e 34 15 1.0
e 34 129 1.0
e 34 32 2.0
e 35 188 1.0
e 35 119 1.0
e 35 198 1.0
e 35 24 1.0
e 36 172 1.0
e 36 222 1.0
e 36 87 1.0
e 36 314 2.0
e 37 58 1.0
e 37 64 1.0
e 37 77 1.0
e 37 255 1.0
e 38 13 2.0
e 38 318 1.0
e 38 252 1.0
e 38 133 47.0
e 39 145 1.0
e 39 143 1.0
e 39 306 2.0
e 39 122 1.0
e 40 130 1.0
e 40 122 1.0
e 40 37 1.0
e 40 290 1.0
e 41 310 1.0
e 41 290 1.0
e 41 301 48.0
e 41 197 1.0
e 42 1 1.0
e 42 21 1.0
e 42 121 8.0
e 42 170 1.0
e 43 1 1.0
e 43 178 2.0
e 43 211 1.0
e 43 255 1.0
e 44 131 1.0
e 44 250 1.0
e 44 164 1.0
e 45 272 1.0
e 45 84 1.0
e 45 269 1.0
e 45 182 1.0
e 46 171 2.0
e 46 273 2.0
e 46 185 1.0
e 46 182 1.0
e 47 50 1.0
e 47 229 2.0
e 47 184 1.0
e 47 39 1.0
e 48 208 1.0
e 48 178 1.0
e 48 306 3.0
e 48 163 1.0
e 49 233 3.0
e 49 33 1.0
e 49 25 1.0
e 49 278 1.0
e 50 233 1.0
e 50 282 1.0
e 50 289 1.0
e 50 82 1.0
e 51 107 1.0
e 51 299 1.0
e 51 301 38.0
e 51 16 1.0
e 52 279 1.0
e 52 11 1.0
e 52 163 1.0
e 52 71 1.0
e 53 81 1.0
e 53 281 1.0
e 53 286 1.0
e 53 71 1.0
e 54 201 7.0
e 54 278 35.0
e 54 91 11.0
e 54 21 5.0
e 54 217 3.0
e 54 317 31.0
e 54 144 4.0
e 54 267 2.0
e 54 9 27.0
e 54 108 12.0
e 54 154 29.0
e 54 226 43.0
e 55 235 3.0
e 55 11 2.0
e 55 216 1.0
e 55 217 19.0
e 56 241 40.0
e 56 282 1.0
e 56 33 2.0
e 56 68 2.0
e 57 128 46.0
e 57 264 20.0
e 57 34 17.0
e 57 249 14.0
e 57 226 46.0
e 57 79 42.0
e 57 217 23.0
e 57 154 25.0
e 57 133 5.0
e 57 317 49.0
e 57 267 21.0
e 57 236 17.0
e 57 237 19.0
e 57 117 22.0
e 57 108 7.0
e 57 241 40.0
e 58 277 5.0
e 58 26 1.0
e 58 111 1.0
e 58 313 1.0
e 59 141 1.0
e 59 238 1.0
e 59 150 1.0
e 59 118 1.0
e 60 66 1.0
e 60 176 1.0
e 60 77 2.0
e 60 213 1.0
e 61 93 1.0
e 61 298 1.0
e 61 135 1.0
e 61 279 1.0
e 62 153 2.0
e 62 60 1.0
e 62 287 1.0
e 62 304 1.0
e 63 94 1.0
e 63 178 1.0
e 63 110 1.0
e 63 35 1.0
e 64 315 1.0
e 64 139 3.0
e 64 218 1.0
e 64 111 1.0
e 65 134 2.0
e 65 275 1.0
e 65 233 1.0
e 65 182 1.0
e 66 105 1.0
e 66 2 3.0
e 66 226 3.0
e 66 100 1.0
e 67 75 1.0
e 67 58 1.0
e 67 271 1.0
e 67 107 1.0
e 68 261 2.0
e 68 276 1.0
e 68 15 1.0
e 68 67 1.0
e 69 30 49.0
e 69 290 1.0
e 69 6 1.0
e 69 271 1.0
e 70 278 1.0
e 70 224 1.0
e 70 238 1.0
e 70 100 1.0
e 71 311 1.0
e 71 107 1.0
e 71 46 1.0
e 71 200 1.0
e 72 149 1.0
e 72 109 1.0
e 72 267 7.0
e 72 217 35.0
e 73 261 2.0
e 73 36 1.0
e 73 159 1.0
e 73 1 1.0
e 74 237 23.0
e 74 75 1.0
e 74 170 1.0
e 74 119 1.0
e 75 284 2.0
e 75 184 1.0
e 75 174 1.0
e 75 253 1.0
e 76 62 2.0
e 76 290 1.0
e 76 310 2.0
e 76 43 1.0
e 77 27 1.0
e 77 3 2.0
e 77 172 1.0
e 77 176 1.0
e 78 146 1.0
e 78 201 2.0
e 78 247 24.0
e 78 275 2.0
e 79 243 1.0
e 79 301 20.0
e 79 106 1.0
e 79 119 1.0
e 80 153 1.0
e 80 2 1.0
e 80 164 1.0
e 80 265 1.0
e 81 107 1.0
e 81 210 1.0
e 81 220 1.0
e 81 234 1.0
e 82 275 1.0
e 82 276 2.0
e 82 271 2.0
e 82 203 1.0
e 83 249 2.0
e 83 244 1.0
e 83 70 1.0
e 83 22 1.0
e 84 4 1.0
e 84 253 1.0
e 84 188 1.0
e 84 82 1.0
e 85 76 1.0
e 85 16 1.0
e 85 101 1.0
e 85 220 1.0
e 86 132 1.0
e 86 272 1.0
e 86 269 1.0
e 86 199 1.0
e 87 308 1.0
e 87 269 1.0
e 87 25 1.0
e 87 243 1.0
e 88 190 1.0
e 88 136 2.0
e 88 315 1.0
e 88 118 1.0
e 89 301 30.0
e 89 259 1.0
e 89 303 1.0
e 89 208 1.0
e 90 282 1.0
e 90 271 1.0
e 90 56 2.0
e 90 38 2.0
e 91 74 2.0
e 91 35 1.0
e 91 75 2.0
e 91 236 14.0
e 92 141 1.0
e 92 187 1.0
e 92 69 1.0
e 92 160 1.0
e 93 99 1.0
e 93 109 1.0
e 93 107 2.0
e 93 208 2.0
e 94 190 1.0
e 94 56 1.0
e 94 103 1.0
e 94 309 2.0
e 95 136 1.0
e 95 108 36.0
e 95 120 1.0
e 95 92 1.0
e 96 56 1.0
e 96 227 1.0
e 96 158 1.0
e 96 282 1.0
e 97 184 2.0
e 97 127 1.0
e 97 154 46.0
e 97 89 3.0
e 98 101 1.0
e 98 267 10.0
e 98 169 1.0
e 98 260 1.0
e 99 7 1.0
e 99 208 1.0
e 99 169 1.0
e 99 249 1.0
e 100 94 1.0
e 100 285 1.0
e 100 45 1.0
e 100 24 1.0
e 101 296 1.0
e 101 5 1.0
e 101 69 1.0
e 101 274 1.0
e 102 52 1.0
e 102 229 1.0
e 102 290 1.0
e 102 231 1.0
e 103 228 1.0
e 103 305 1.0
e 103 214 1.0
e 103 299 1.0
e 104 230 1.0
e 104 316 1.0
e 104 305 2.0
e 104 252 1.0
e 105 213 1.0
e 105 29 1.0
e 105 307 1.0
e 105 11 1.0
e 106 130 1.0
e 106 235 2.0
e 106 172 1.0
e 106 163 1.0
e 107 16 1.0
e 107 101 1.0
e 107 104 1.0
e 107 62 1.0
e 108 2 31.0
e 108 19 49.0
e 108 159 3.0
e 108 176 31.0
e 108 291 47.0
e 108 117 18.0
e 108 236 17.0
e 108 121 7.0
e 108 133 19.0
e 108 144 45.0
e 109 202 1.0
e 109 193 1.0
e 109 169 1.0
e 109 199 2.0
e 110 220 2.0
e 110 181 1.0
e 110 169 1.0
e 110 98 2.0
e 111 144 17.0
e 111 230 1.0
e 111 46 1.0
e 111 119 1.0
e 112 73 2.0
e 112 181 3.0
e 112 132 1.0
e 112 239 2.0
e 113 177 1.0
e 113 191 1.0
e 113 118 1.0
e 113 303 1.0
e 114 31 1.0
e 114 231 1.0
e 114 63 1.0
e 114 151 1.0
e 115 127 2.0
e 115 292 2.0
e 115 293 1.0
e 115 232 1.0
e 116 263 1.0
e 116 176 1.0
e 116 184 1.0
e 116 170 1.0
e 117 139 31.0
e 117 261 44.0
e 117 194 30.0
e 117 99 21.0
e 117 133 12.0
e 117 44 19.0
e 117 267 27.0
e 117 144 17.0
e 117 121 21.0
e 117 217 12.0
e 117 154 19.0
e 117 277 42.0
e 118 226 10.0
e 118 162 1.0
e 118 236 4.0
e 118 86 1.0
e 119 278 1.0
e 119 56 1.0
e 119 120 1.0
e 119 140 1.0
e 120 13 1.0
e 120 148 1.0
e 120 295 1.0
e 120 152 1.0
e 121 301 47.0
e 121 75 7.0
e 121 171 33.0
e 121 194 41.0
e 121 133 41.0
e 121 51 39.0
e 121 267 30.0
e 121 54 42.0
e 121 217 38.0
e 121 226 47.0
e 121 144 16.0
e 122 191 1.0
e 122 114 1.0
e 122 240 1.0
e 122 61 1.0
e 123 86 3.0
e 123 160 2.0
e 123 76 2.0
e 123 27 2.0
e 124 263 1.0
e 124 92 1.0
e 124 310 1.0
e 124 204 1.0
e 125 235 1.0
e 125 176 1.0
e 125 303 1.0
e 125 216 1.0
e 126 34 3.0
e 126 19 1.0
e 126 61 1.0
e 126 280 3.0
e 127 177 2.0
e 127 114 1.0
e 127 121 35.0
e 127 120 1.0
e 128 25 2.0
e 128 274 1.0
e 128 282 1.0
e 128 165 1.0
e 129 218 2.0
e 129 117 40.0
e 129 296 1.0
e 129 45 1.0
e 130 140 1.0
e 130 254 1.0
e 130 279 1.0
e 130 222 1.0
e 131 288 2.0
e 131 63 1.0
e 131 162 1.0
e 131 260 2.0
e 132 253 1.0
e 132 259 1.0
e 132 285 1.0
e 132 97 1.0
e 133 310 13.0
e 133 114 23.0
e 133 60 4.0
e 133 53 47.0
e 133 54 10.0
e 133 217 47.0
e 133 277 10.0
e 133 291 19.0
e 133 267 27.0
e 133 144 6.0
e 134 95 1.0
e 134 84 1.0
e 134 105 1.0
e 134 133 10.0
e 135 131 2.0
e 135 43 1.0
e 135 85 1.0
e 135 231 1.0
e 136 291 20.0
e 136 125 1.0
e 136 243 1.0
e 137 280 1.0
e 137 70 1.0
e 137 169 1.0
e 137 150 1.0
e 138 261 1.0
e 138 145 1.0
e 138 305 1.0
e 138 171 2.0
e 139 136 1.0
e 139 124 1.0
e 139 234 1.0
e 139 262 1.0
e 140 188 1.0
e 140 234 2.0
e 140 230 1.0
e 140 99 1.0
e 141 14 1.0
e 141 185 1.0
e 141 202 1.0
e 141 234 1.0
e 142 177 2.0
e 142 130 1.0
e 142 239 2.0
e 142 272 1.0
e 143 268 1.0
e 143 14 1.0
e 143 94 1.0
e 144 158 48.0
e 144 160 18.0
e 144 244 36.0
e 144 173 40.0
e 144 301 16.0
e 144 291 38.0
e 144 154 39.0
e 145 197 1.0
e 145 76 1.0
e 145 284 1.0
e 145 100 1.0
e 146 138 1.0
e 146 19 2.0
e 146 13 1.0
e 147 18 1.0
e 147 17 1.0
e 147 288 1.0
e 147 29 1.0
e 148 129 1.0
e 148 222 1.0
e 148 297 1.0
e 148 141 1.0
e 149 259 1.0
e 149 288 1.0
e 149 7 1.0
e 149 194 1.0
e 150 248 2.0
e 150 165 1.0
e 150 53 1.0
e 150 304 1.0
e 151 178 2.0
e 151 304 1.0
e 151 204 1.0
e 151 238 1.0
e 152 32 2.0
e 152 208 2.0
e 152 18 3.0
e 152 272 1.0
e 153 39 1.0
e 153 50 1.0
e 153 0 1.0
e 153 123 1.0
e 154 89 23.0
e 154 112 9.0
e 154 297 15.0
e 154 108 21.0
e 154 291 27.0
e 154 217 43.0
e 154 226 1.0
e 154 236 27.0
e 154 301 18.0
e 155 150 1.0
e 155 136 2.0
e 155 208 1.0
e 155 32 1.0
e 156 152 1.0
e 156 194 1.0
e 156 111 2.0
e 156 271 1.0
e 157 201 2.0
e 157 278 1.0
e 157 284 1.0
e 157 302 2.0
e 158 41 2.0
e 158 40 1.0
e 158 121 24.0
e 158 216 1.0
e 159 297 1.0
e 159 16 2.0
e 159 24 1.0
e 159 316 2.0
e 160 293 1.0
e 160 187 2.0
e 160 138 1.0
e 160 254 1.0
e 161 28 1.0
e 161 301 32.0
e 161 196 1.0
e 161 224 1.0
e 162 87 1.0
e 162 220 1.0
e 162 180 1.0
e 162 148 1.0
e 163 78 1.0
e 163 65 1.0
e 163 13 1.0
e 163 47 1.0
e 164 231 1.0
e 164 128 1.0
e 164 29 1.0
e 164 286 1.0
e 165 224 1.0
e 165 278 1.0
e 165 24 1.0
e 165 231 1.0
e 166 231 1.0
e 166 149 1.0
e 166 234 2.0
e 167 202 1.0
e 167 262 1.0
e 167 282 1.0
e 167 157 2.0
e 168 167 1.0
e 168 243 1.0
e 168 65 1.0
e 168 44 1.0
e 169 53 1.0
e 169 239 2.0
e 169 243 1.0
e 169 246 1.0
e 170 45 1.0
e 170 148 1.0
e 170 301 3.0
e 170 217 38.0
e 171 159 1.0
e 171 103 1.0
e 171 38 1.0
e 171 191 2.0
e 172 159 1.0
e 172 125 2.0
e 172 39 1.0
e 172 226 1.0
e 173 237 31.0
e 173 22 1.0
e 173 292 2.0
e 173 269 1.0
e 174 292 2.0
e 174 95 1.0
e 174 116 1.0
e 174 241 18.0
e 175 144 49.0
e 175 4 2.0
e 175 219 1.0
e 175 13 1.0
e 176 215 1.0
e 176 277 30.0
e 176 109 1.0
e 176 150 1.0
e 177 208 1.0
e 177 144 19.0
e 177 128 3.0
e 177 67 2.0
e 178 47 2.0
e 178 249 2.0
e 178 291 25.0
e 179 280 1.0
e 179 120 1.0
e 179 177 1.0
e 179 154 42.0
e 180 276 1.0
e 180 253 1.0
e 180 82 3.0
e 180 177 2.0
e 181 160 1.0
e 181 257 1.0
e 181 78 2.0
e 181 69 1.0
e 182 281 1.0
e 182 249 2.0
e 182 310 1.0
e 182 305 1.0
e 183 259 1.0
e 183 252 1.0
e 183 196 1.0
e 183 46 1.0
e 184 200 1.0
e 184 165 1.0
e 184 126 1.0
e 184 238 1.0
e 185 180 1.0
e 185 280 1.0
e 185 273 1.0
e 185 184 1.0
e 186 146 1.0
e 186 124 3.0
e 186 277 10.0
e 186 248 1.0
e 187 139 2.0
e 187 275 1.0
e 187 135 2.0
e 187 196 2.0
e 188 135 2.0
e 188 184 1.0
e 188 114 1.0
e 188 71 1.0
e 189 82 1.0
e 189 192 3.0
e 189 3 1.0
e 189 315 1.0
e 190 176 1.0
e 190 214 1.0
e 190 318 1.0
e 190 128 1.0
e 191 129 1.0
e 191 216 1.0
e 191 305 1.0
e 191 266 1.0
e 192 258 1.0
e 192 269 1.0
e 192 150 1.0
e 192 263 2.0
e 193 8 2.0
e 193 74 1.0
e 193 146 1.0
e 193 195 1.0
e 194 93 1.0
e 194 143 1.0
e 194 112 1.0
e 194 287 1.0
e 195 274 1.0
e 195 134 1.0
e 195 234 1.0
e 195 236 1.0
e 196 204 1.0
e 196 242 1.0
e 196 218 1.0
e 196 86 1.0
e 197 247 14.0
e 197 98 1.0
e 197 25 1.0
e 197 134 1.0
e 198 45 1.0
e 198 89 1.0
e 198 209 1.0
e 198 31 1.0
e 199 153 2.0
e 199 71 1.0
e 199 104 1.0
e 199 150 1.0
e 200 210 1.0
e 200 255 1.0
e 200 116 1.0
e 200 4 2.0
e 201 6 1.0
e 201 283 1.0
e 201 194 1.0
e 201 239 1.0
e 202 131 1.0
e 202 192 1.0
e 202 224 1.0
e 202 311 1.0
e 203 188 1.0
e 203 201 1.0
e 203 136 3.0
e 203 185 1.0
e 204 199 3.0
e 204 222 1.0
e 204 137 1.0
e 204 76 1.0
e 205 215 1.0
e 205 171 2.0
e 205 3 1.0
e 205 197 1.0
e 206 212 1.0
e 206 208 1.0
e 206 141 3.0
e 206 222 1.0
e 207 179 2.0
e 207 91 1.0
e 207 312 1.0
e 207 298 1.0
e 208 233 1.0
e 208 228 1.0
e 208 303 1.0
e 209 222 1.0
e 209 244 1.0
e 209 125 1.0
e 209 310 2.0
e 210 12 2.0
e 210 94 1.0
e 210 18 1.0
e 210 180 1.0
e 211 195 1.0
e 211 210 1.0
e 211 136 1.0
e 211 61 1.0
e 212 179 1.0
e 212 166 1.0
e 212 235 1.0
e 212 137 1.0
e 213 70 1.0
e 213 66 2.0
e 213 313 1.0
e 213 276 1.0
e 214 40 1.0
e 214 21 1.0
e 214 119 1.0
e 215 43 1.0
e 215 128 2.0
e 215 14 1.0
e 215 153 1.0
e 216 166 1.0
e 216 101 1.0
e 216 182 1.0
e 216 169 1.0
e 217 258 24.0
e 217 8 37.0
e 217 193 4.0
e 217 306 18.0
e 218 251 1.0
e 218 19 1.0
e 218 24 1.0
e 218 125 1.0
e 219 48 2.0
e 219 95 1.0
e 219 285 2.0
e 219 283 2.0
e 220 49 2.0
e 220 283 2.0
e 220 94 2.0
e 220 203 1.0
e 221 33 3.0
e 221 126 6.0
e 221 7 3.0
e 221 267 26.0
e 222 295 1.0
e 222 179 1.0
e 222 160 2.0
e 222 298 1.0
e 223 146 1.0
e 223 109 2.0
e 223 184 1.0
e 223 108 48.0
e 224 306 1.0
e 224 230 1.0
e 224 50 1.0
e 224 37 1.0
e 225 10 1.0
e 225 217 21.0
e 225 107 1.0
e 225 307 1.0
e 226 18 28.0
e 226 217 14.0
e 226 219 6.0
e 226 62 18.0
e 226 108 19.0
e 226 241 37.0
e 226 236 29.0
e 227 116 1.0
e 227 32 1.0
e 227 155 3.0
e 227 58 1.0
e 228 126 1.0
e 228 166 2.0
e 228 198 2.0
e 228 32 1.0
e 229 247 20.0
e 229 205 1.0
e 229 235 1.0
e 229 27 1.0
e 230 221 1.0
e 230 6 1.0
e 230 165 1.0
e 230 153 1.0
e 231 87 1.0
e 231 157 1.0
e 231 53 1.0
e 231 95 1.0
e 232 70 1.0
e 232 270 1.0
e 232 284 1.0
e 232 153 1.0
e 233 117 13.0
e 233 277 10.0
e 233 301 19.0
e 233 180 1.0
e 234 226 7.0
e 234 14 1.0
e 234 186 2.0
e 234 235 1.0
e 235 83 2.0
e 235 171 2.0
e 235 251 1.0
e 235 291 39.0
e 236 133 19.0
e 236 29 39.0
e 236 114 26.0
e 236 248 28.0
e 236 117 15.0
e 236 301 37.0
e 236 144 29.0
e 236 54 48.0
e 237 17 10.0
e 237 167 30.0
e 237 9 7.0
e 237 228 30.0
e 237 217 37.0
e 237 54 33.0
e 237 108 29.0
e 237 226 29.0
e 237 117 7.0
e 237 236 40.0
e 237 121 8.0
e 237 241 24.0
e 237 247 40.0
e 238 99 1.0
e 238 139 1.0
e 238 201 2.0
e 238 96 1.0
e 239 122 2.0
e 239 35 1.0
e 239 108 2.0
e 239 4 1.0
e 240 267 24.0
e 240 249 1.0
e 240 207 1.0
e 240 13 1.0
e 241 135 19.0
e 241 22 35.0
e 241 92 22.0
e 241 154 1.0
e 241 54 46.0
e 241 267 4.0
e 241 117 9.0
e 241 236 22.0
e 241 217 38.0
e 241 247 18.0
e 242 77 3.0
e 242 160 2.0
e 242 124 1.0
e 242 300 2.0
e 243 318 3.0
e 243 3 1.0
e 243 158 1.0
e 243 138 1.0
e 244 297 1.0
e 244 175 1.0
e 244 299 1.0
e 244 254 1.0
e 245 290 1.0
e 245 230 1.0
e 245 82 1.0
e 245 12 1.0
e 246 108 36.0
e 246 309 1.0
e 246 78 2.0
e 246 190 1.0
e 247 246 31.0
e 247 104 42.0
e 247 82 42.0
e 247 318 36.0
e 247 54 34.0
e 247 226 26.0
e 247 144 47.0
e 247 121 20.0
e 247 30 33.0
e 247 236 46.0
e 247 267 31.0
e 248 290 1.0
e 248 314 1.0
e 248 211 2.0
e 248 265 1.0
e 249 272 1.0
e 249 303 3.0
e 249 4 1.0
e 249 261 1.0
e 250 297 1.0
e 250 82 1.0
e 250 196 1.0
e 250 145 1.0
e 251 3 1.0
e 251 47 1.0
e 251 201 1.0
e 252 35 2.0
e 252 41 2.0
e 252 267 21.0
e 252 288 1.0
e 253 187 1.0
e 253 223 2.0
e 253 140 1.0
e 253 114 1.0
e 254 316 2.0
e 254 155 1.0
e 254 60 2.0
e 254 53 1.0
e 255 183 1.0
e 255 30 36.0
e 255 46 2.0
e 255 314 2.0
e 256 171 1.0
e 256 17 1.0
e 256 81 1.0
e 256 233 1.0
e 257 82 1.0
e 257 152 2.0
e 257 230 1.0
e 257 186 2.0
e 258 138 1.0
e 258 89 2.0
e 258 60 1.0
e 258 36 1.0
e 259 170 1.0
e 259 313 1.0
e 259 29 1.0
e 259 101 1.0
e 260 230 1.0
e 260 147 1.0
e 260 83 1.0
e 260 253 1.0
e 261 278 2.0
e 261 43 1.0
e 261 285 2.0
e 261 141 1.0
e 262 60 1.0
e 262 107 1.0
e 262 143 1.0
e 262 187 1.0
e 263 86 1.0
e 263 53 1.0
e 263 231 1.0
e 263 313 1.0
e 264 41 1.0
e 264 163 2.0
e 264 296 2.0
e 264 48 3.0
e 265 87 2.0
e 265 218 2.0
e 265 75 1.0
e 265 223 1.0
e 266 18 1.0
e 266 171 1.0
e 266 276 1.0
e 266 128 1.0
e 267 0 45.0
e 267 29 37.0
e 267 49 13.0
e 267 53 43.0
e 268 14 1.0
e 268 225 1.0
e 268 135 2.0
e 268 231 1.0
e 269 2 2.0
e 269 120 1.0
e 269 278 1.0
e 269 43 1.0
e 270 144 49.0
e 270 121 45.0
e 270 92 2.0
e 270 195 2.0
e 271 13 1.0
e 271 20 1.0
e 271 110 1.0
e 271 224 1.0
e 272 223 2.0
e 272 169 1.0
e 272 197 1.0
e 272 295 1.0
e 273 265 1.0
e 273 226 23.0
e 273 29 1.0
e 273 210 1.0
e 274 43 1.0
e 274 147 1.0
e 274 166 1.0
e 274 171 2.0
e 275 147 1.0
e 275 195 2.0
e 275 216 1.0
e 276 224 1.0
e 276 149 1.0
e 276 283 1.0
e 276 225 1.0
e 277 152 39.0
e 277 93 34.0
e 277 11 48.0
e 277 99 30.0
e 277 54 22.0
e 277 226 41.0
e 277 121 40.0
e 277 144 6.0
e 277 237 25.0
e 278 83 1.0
e 278 257 1.0
e 278 297 1.0
e 278 52 1.0
e 279 128 1.0
e 279 221 4.0
e 279 146 1.0
e 279 100 1.0
e 280 119 1.0
e 280 110 2.0
e 280 300 1.0
e 280 217 22.0
e 281 165 1.0
e 281 259 1.0
e 281 125 1.0
e 281 83 1.0
e 282 16 1.0
e 282 24 1.0
e 282 315 1.0
e 282 58 1.0
e 283 61 1.0
e 283 55 2.0
e 283 288 1.0
e 283 89 1.0
e 284 187 1.0
e 284 221 1.0
e 284 59 1.0
e 284 201 1.0
e 285 241 42.0
e 285 253 1.0
e 285 64 1.0
e 285 296 1.0
e 286 275 1.0
e 286 169 1.0
e 286 292 1.0
e 286 56 2.0
e 287 86 1.0
e 287 317 2.0
e 287 154 18.0
e 287 95 1.0
e 288 272 1.0
e 288 87 1.0
e 288 303 1.0
e 288 139 2.0
e 289 168 3.0
e 289 308 1.0
e 289 305 1.0
e 289 228 1.0
e 290 137 1.0
e 290 203 1.0
e 290 27 1.0
e 290 43 1.0
e 291 225 24.0
e 291 32 39.0
e 291 278 2.0
e 291 290 38.0
e 291 54 47.0
e 291 30 22.0
e 292 236 2.0
e 292 120 1.0
e 292 60 1.0
e 292 206 2.0
e 293 65 1.0
e 293 245 1.0
e 293 193 1.0
e 293 151 1.0
e 294 300 1.0
e 294 16 1.0
e 294 7 1.0
e 294 309 3.0
e 295 214 1.0
e 295 76 1.0
e 295 213 2.0
e 295 82 1.0
e 296 53 1.0
e 296 130 1.0
e 296 183 1.0
e 296 93 2.0
e 297 105 1.0
e 297 264 1.0
e 297 260 1.0
e 297 201 1.0
e 298 82 1.0
e 298 208 1.0
e 298 285 1.0
e 298 318 1.0
e 299 193 2.0
e 299 278 1.0
e 299 74 2.0
e 299 3 1.0
e 300 97 1.0
e 300 190 1.0
e 300 14 3.0
e 300 261 2.0
e 301 314 13.0
e 301 217 44.0
e 301 265 44.0
e 301 168 44.0
e 301 247 35.0
e 302 115 1.0
e 302 74 1.0
e 302 292 2.0
e 302 291 1.0
e 303 173 1.0
e 303 91 1.0
e 303 204 1.0
e 303 42 2.0
e 304 201 3.0
e 304 78 2.0
e 304 280 1.0
e 304 131 1.0
e 305 293 1.0
e 305 278 1.0
e 305 310 2.0
e 305 260 1.0
e 306 55 2.0
e 306 118 1.0
e 306 180 1.0
e 306 137 1.0
e 307 261 1.0
e 307 34 2.0
e 307 5 1.0
e 307 97 1.0
e 308 135 1.0
e 308 111 1.0
e 308 179 1.0
e 308 104 1.0
e 309 150 1.0
e 309 87 1.0
e 309 154 38.0
e 309 97 1.0
e 310 164 1.0
e 310 104 2.0
e 310 173 1.0
e 311 59 1.0
e 311 301 22.0
e 311 110 1.0
e 311 31 1.0
e 312 251 1.0
e 312 225 1.0
e 312 0 2.0
e 312 13 1.0
e 313 159 2.0
e 313 199 1.0
e 313 179 1.0
e 313 279 1.0
e 314 19 1.0
e 314 115 1.0
e 314 203 1.0
e 314 39 1.0
e 315 111 1.0
e 315 65 1.0
e 315 192 1.0
e 315 116 1.0
e 316 291 49.0
e 316 218 1.0
e 316 161 1.0
e 316 0 1.0
e 317 95 1.0
e 317 285 32.0
e 317 297 44.0
e 317 16 18.0
e 317 30 16.0
e 317 133 1.0
e 317 237 4.0
e 317 241 42.0
e 317 154 29.0
e 317 277 36.0
e 317 247 21.0
e 318 292 2.0
e 318 132 2.0
e 318 191 2.0
e 318 211 1.0
e 319 256 1.0
e 319 274 1.0
e 319 312 1.0
e 319 59 1.0
